(set-info :status unknown)
(declare-fun %B () (_ BitVec 21))
(declare-fun %A () (_ BitVec 21))
(declare-fun %X () (_ BitVec 21))
(declare-fun u_%Y () (_ BitVec 8))
(declare-fun |ana_isPowerOf2(%A)| () (_ BitVec 1))
(assert
 (let (($x17809 (or (and (distinct %X (_ bv1048576 21)) true) (and (distinct (bvshl %A %B) (_ bv2097151 21)) true))))
 (let ((?x15568 (bvshl %A %B)))
 (let (($x170 (and (distinct ?x15568 (_ bv0 21)) true)))
 (let (($x6182 (bvult %B (_ bv21 21))))
 (let (($x95 (= |ana_isPowerOf2(%A)| (_ bv1 1))))
 (let (($x3398 (=> $x95 (and (and (distinct %A (_ bv0 21)) true) (= (bvand %A (bvsub %A (_ bv1 21))) (_ bv0 21))))))
 (and $x6182 $x170 $x17809 $x3398 $x6182 $x95 (= u_%Y (_ bv1 8)) (not (and $x6182 $x170 $x17809))))))))))
(check-sat)
